(set-info :Origin "This instance was generated by: BanditFuzz-- an RL fuzzer for SMT solvers" )
(set-info :Author "Joe Scott, Fed Mora, Vijay Ganesh" )
(set-info :Contact "Joe Scott, joseph.scott@uwaterloo.ca")
(set-logic QF_BV)
(declare-const bool_0 Bool)
(declare-const bool_1 Bool)
(declare-const bool_2 Bool)
(declare-const bool_3 Bool)
(declare-const bool_4 Bool)
(declare-const bv_0 (_ BitVec 32))
(declare-const bv_1 (_ BitVec 32))
(declare-const bv_2 (_ BitVec 32))
(declare-const bv_3 (_ BitVec 32))
(declare-const bv_4 (_ BitVec 32))
(assert (bvsge (bvsdiv (bvmul #x5fce5acb  bv_3) (bvsrem #x03163971  #xd3240e86 )) (bvand (bvand #x4c85ecf6  #x7faef719 ) (bvadd bv_1 bv_0))))
(assert (and (or (bvslt #x4a72295a  bv_2) (or bool_4 false)) (bvsge (bvadd bv_1 bv_0) (bvsub #x854df674  bv_1))))
(assert (or (bvugt (bvurem #xf44ba1dc  bv_0) (bvurem bv_4 bv_3)) (bvule (bvmul bv_0 #xe09386aa ) (bvudiv bv_4 bv_4))))
(assert (bvule (bvadd (bvadd #xdd974d63  bv_4) (bvshl bv_3 bv_2)) (bvsmod (bvudiv bv_1 #x16280982 ) (bvxnor #xa2f32e65  bv_0))))
(assert (=> (bvugt (bvadd bv_0 #x61e9ead3 ) (bvshl bv_3 #x2d0a1b32 )) (=> (not false) (bvult bv_4 #xdb948f53 ))))
(check-sat)
(exit)
